words_easy_train/words_526_SAT.qaiger
aag 82 24 0 1 58
12
22
28
8
14
26
38
34
4
18
48
10
36
32
6
46
44
42
30
40
20
24
2
16
165
50 33 17
52 32 16
54 53 51
56 45 43
58 56 47
60 59 49
62 58 48
64 63 61
66 25 8
68 24 9
70 69 67
72 71 65
74 21 4
76 20 5
78 77 75
80 79 45
82 18 3
84 19 2
86 85 83
88 86 42
90 88 81
92 91 57
94 23 6
96 22 7
98 97 95
100 98 46
102 78 44
104 103 101
106 104 92
108 31 15
110 30 14
112 111 109
114 29 12
116 28 13
118 117 115
120 27 10
122 26 11
124 123 121
126 124 118
128 126 113
130 129 60
132 57 46
134 133 59
136 134 99
138 137 131
140 138 107
142 140 73
144 70 63
146 125 119
148 112 61
150 148 146
152 150 145
154 153 143
156 142 61
158 157 155
160 158 54
162 159 55
164 163 161
i0 2 y1[5]
i1 2 y2[2]
i2 2 y2[5]
i3 2 y1[3]
i4 2 y1[6]
i5 2 y2[4]
i6 1 x2[2]
i7 1 x2[0]
i8 2 y1[1]
i9 2 y2[0]
i10 1 x2[7]
i11 2 y1[4]
i12 1 x2[1]
i13 2 y2[7]
i14 2 y1[2]
i15 1 x2[6]
i16 1 x2[5]
i17 1 x2[4]
i18 2 y2[6]
i19 1 x2[3]
i20 2 y2[1]
i21 2 y2[3]
i22 2 y1[0]
i23 2 y1[7]
o0 bv[0]
c
simplified
  <=
    >> 4
      1 x2
    xor
      2 y1
      2 y2
