words_easy_train/words_526_SAT.qaiger.qdimacs
p cnf 82 175
a 17 18 19 20 21 22 23 24 0
e 1 2 3 4 5 6 7 8 9 10 11 12 13 14 15 16 25 26 27 28 29 30 31 32 33 34 35 36 37 38 39 40 41 42 43 44 45 46 47 48 49 50 51 52 53 54 55 56 57 58 59 60 61 62 63 64 65 66 67 68 69 70 71 72 73 74 75 76 77 78 79 80 81 82 0
16 8 25 0
-16 -25 0
-8 -25 0
-16 -8 26 0
16 -26 0
8 -26 0
26 25 27 0
-26 -27 0
-25 -27 0
22 21 28 0
-22 -28 0
-21 -28 0
-28 23 29 0
28 -29 0
-23 -29 0
29 24 30 0
-29 -30 0
-24 -30 0
-29 -24 31 0
29 -31 0
24 -31 0
31 30 32 0
-31 -32 0
-30 -32 0
12 -4 33 0
-12 -33 0
4 -33 0
-12 4 34 0
12 -34 0
-4 -34 0
34 33 35 0
-34 -35 0
-33 -35 0
35 32 36 0
-35 -36 0
-32 -36 0
10 -2 37 0
-10 -37 0
2 -37 0
-10 2 38 0
10 -38 0
-2 -38 0
38 37 39 0
-38 -39 0
-37 -39 0
39 22 40 0
-39 -40 0
-22 -40 0
-9 1 41 0
9 -41 0
-1 -41 0
9 -1 42 0
-9 -42 0
1 -42 0
42 41 43 0
-42 -43 0
-41 -43 0
-43 -21 44 0
43 -44 0
21 -44 0
-44 40 45 0
44 -45 0
-40 -45 0
45 28 46 0
-45 -46 0
-28 -46 0
11 -3 47 0
-11 -47 0
3 -47 0
-11 3 48 0
11 -48 0
-3 -48 0
48 47 49 0
-48 -49 0
-47 -49 0
-49 -23 50 0
49 -50 0
23 -50 0
-39 -22 51 0
39 -51 0
22 -51 0
51 50 52 0
-51 -52 0
-50 -52 0
-52 -46 53 0
52 -53 0
46 -53 0
15 7 54 0
-15 -54 0
-7 -54 0
-15 -7 55 0
15 -55 0
7 -55 0
55 54 56 0
-55 -56 0
-54 -56 0
14 -6 57 0
-14 -57 0
6 -57 0
-14 6 58 0
14 -58 0
-6 -58 0
58 57 59 0
-58 -59 0
-57 -59 0
13 -5 60 0
-13 -60 0
5 -60 0
-13 5 61 0
13 -61 0
-5 -61 0
61 60 62 0
-61 -62 0
-60 -62 0
-62 -59 63 0
62 -63 0
59 -63 0
-63 56 64 0
63 -64 0
-56 -64 0
64 -30 65 0
-64 -65 0
30 -65 0
28 -23 66 0
-28 -66 0
23 -66 0
66 29 67 0
-66 -67 0
-29 -67 0
-67 49 68 0
67 -68 0
-49 -68 0
68 65 69 0
-68 -69 0
-65 -69 0
-69 53 70 0
69 -70 0
-53 -70 0
-70 36 71 0
70 -71 0
-36 -71 0
-35 31 72 0
35 -72 0
-31 -72 0
62 59 73 0
-62 -73 0
-59 -73 0
-56 30 74 0
56 -74 0
-30 -74 0
-74 -73 75 0
74 -75 0
73 -75 0
-75 72 76 0
75 -76 0
-72 -76 0
76 71 77 0
-76 -77 0
-71 -77 0
-71 30 78 0
71 -78 0
-30 -78 0
78 77 79 0
-78 -79 0
-77 -79 0
-79 -27 80 0
79 -80 0
27 -80 0
79 27 81 0
-79 -81 0
-27 -81 0
81 80 82 0
-81 -82 0
-80 -82 0
-82 0
